p tw 109 29431 2 
1 4 
1 6 
1 8 
1 10 
1 12 
1 14 
1 16 
1 18 
1 20 
1 22 
1 24 
1 26 
1 28 
1 30 
1 32 
1 34 
1 36 
1 38 
1 40 
1 42 
1 44 
1 46 
1 48 
1 50 
1 52 
1 54 
1 56 
1 58 
1 60 
1 62 
1 64 
1 66 
1 68 
1 70 
1 72 
1 74 
1 76 
1 78 
1 80 
1 82 
1 84 
1 86 
1 88 
1 90 
1 92 
1 94 
1 96 
1 98 
1 100 
1 102 
1 104 
1 106 
1 108 
2 3 
2 4 
2 5 
2 7 
2 8 
2 10 
2 11 
2 12 
2 13 
2 14 
2 18 
2 19 
2 20 
2 23 
2 25 
2 27 
2 30 
2 31 
2 34 
2 35 
2 36 
2 37 
2 40 
2 45 
2 48 
2 50 
2 57 
2 59 
2 61 
2 62 
2 63 
2 64 
2 65 
2 69 
2 71 
2 72 
2 73 
2 76 
2 78 
2 79 
2 82 
2 83 
2 91 
2 92 
2 94 
2 95 
2 97 
2 98 
2 100 
2 102 
2 103 
2 104 
2 108 
3 7 
3 10 
3 16 
3 17 
3 18 
3 22 
3 23 
3 25 
3 27 
3 29 
3 30 
3 33 
3 34 
3 39 
3 40 
3 42 
3 43 
3 44 
3 45 
3 47 
3 48 
3 50 
3 52 
3 53 
3 54 
3 55 
3 56 
3 57 
3 59 
3 61 
3 67 
3 68 
3 69 
3 71 
3 75 
3 76 
3 78 
3 81 
3 82 
3 85 
3 86 
3 87 
3 88 
3 89 
3 90 
3 91 
3 94 
3 97 
3 100 
3 102 
3 106 
3 107 
3 108 
4 5 
4 6 
4 7 
4 9 
4 10 
4 12 
4 13 
4 14 
4 15 
4 16 
4 20 
4 21 
4 22 
4 25 
4 27 
4 29 
4 32 
4 33 
4 36 
4 37 
4 38 
4 39 
4 42 
4 47 
4 50 
4 52 
4 59 
4 61 
4 63 
4 64 
4 65 
4 66 
4 67 
4 71 
4 73 
4 74 
4 75 
4 78 
4 80 
4 81 
4 84 
4 85 
4 93 
4 94 
4 96 
4 97 
4 99 
4 100 
4 102 
4 104 
4 105 
4 106 
5 9 
5 12 
5 18 
5 19 
5 20 
5 24 
5 25 
5 27 
5 29 
5 31 
5 32 
5 35 
5 36 
5 41 
5 42 
5 44 
5 45 
5 46 
5 47 
5 49 
5 50 
5 52 
5 54 
5 55 
5 56 
5 57 
5 58 
5 59 
5 61 
5 63 
5 69 
5 70 
5 71 
5 73 
5 77 
5 78 
5 80 
5 83 
5 84 
5 87 
5 88 
5 89 
5 90 
5 91 
5 92 
5 93 
5 96 
5 99 
5 102 
5 104 
5 108 
5 109 
6 7 
6 8 
6 9 
6 11 
6 12 
6 14 
6 15 
6 16 
6 17 
6 18 
6 22 
6 23 
6 24 
6 27 
6 29 
6 31 
6 34 
6 35 
6 38 
6 39 
6 40 
6 41 
6 44 
6 49 
6 52 
6 54 
6 61 
6 63 
6 65 
6 66 
6 67 
6 68 
6 69 
6 73 
6 75 
6 76 
6 77 
6 80 
6 82 
6 83 
6 86 
6 87 
6 95 
6 96 
6 98 
6 99 
6 101 
6 102 
6 104 
6 106 
6 107 
6 108 
7 11 
7 14 
7 20 
7 21 
7 22 
7 26 
7 27 
7 29 
7 31 
7 33 
7 34 
7 37 
7 38 
7 43 
7 44 
7 46 
7 47 
7 48 
7 49 
7 51 
7 52 
7 54 
7 56 
7 57 
7 58 
7 59 
7 60 
7 61 
7 63 
7 65 
7 71 
7 72 
7 73 
7 75 
7 79 
7 80 
7 82 
7 85 
7 86 
7 89 
7 90 
7 91 
7 92 
7 93 
7 94 
7 95 
7 98 
7 101 
7 104 
7 106 
8 9 
8 10 
8 11 
8 13 
8 14 
8 16 
8 17 
8 18 
8 19 
8 20 
8 24 
8 25 
8 26 
8 29 
8 31 
8 33 
8 36 
8 37 
8 40 
8 41 
8 42 
8 43 
8 46 
8 51 
8 54 
8 56 
8 63 
8 65 
8 67 
8 68 
8 69 
8 70 
8 71 
8 75 
8 77 
8 78 
8 79 
8 82 
8 84 
8 85 
8 88 
8 89 
8 97 
8 98 
8 100 
8 101 
8 103 
8 104 
8 106 
8 108 
8 109 
9 13 
9 16 
9 22 
9 23 
9 24 
9 28 
9 29 
9 31 
9 33 
9 35 
9 36 
9 39 
9 40 
9 45 
9 46 
9 48 
9 49 
9 50 
9 51 
9 53 
9 54 
9 56 
9 58 
9 59 
9 60 
9 61 
9 62 
9 63 
9 65 
9 67 
9 73 
9 74 
9 75 
9 77 
9 81 
9 82 
9 84 
9 87 
9 88 
9 91 
9 92 
9 93 
9 94 
9 95 
9 96 
9 97 
9 100 
9 103 
9 106 
9 108 
10 11 
10 12 
10 13 
10 15 
10 16 
10 18 
10 19 
10 20 
10 21 
10 22 
10 26 
10 27 
10 28 
10 31 
10 33 
10 35 
10 38 
10 39 
10 42 
10 43 
10 44 
10 45 
10 48 
10 53 
10 56 
10 58 
10 65 
10 67 
10 69 
10 70 
10 71 
10 72 
10 73 
10 77 
10 79 
10 80 
10 81 
10 84 
10 86 
10 87 
10 90 
10 91 
10 99 
10 100 
10 102 
10 103 
10 105 
10 106 
10 108 
11 15 
11 18 
11 24 
11 25 
11 26 
11 30 
11 31 
11 33 
11 35 
11 37 
11 38 
11 41 
11 42 
11 47 
11 48 
11 50 
11 51 
11 52 
11 53 
11 55 
11 56 
11 58 
11 60 
11 61 
11 62 
11 63 
11 64 
11 65 
11 67 
11 69 
11 75 
11 76 
11 77 
11 79 
11 83 
11 84 
11 86 
11 89 
11 90 
11 93 
11 94 
11 95 
11 96 
11 97 
11 98 
11 99 
11 102 
11 105 
11 108 
12 13 
12 14 
12 15 
12 17 
12 18 
12 20 
12 21 
12 22 
12 23 
12 24 
12 28 
12 29 
12 30 
12 33 
12 35 
12 37 
12 40 
12 41 
12 44 
12 45 
12 46 
12 47 
12 50 
12 55 
12 58 
12 60 
12 67 
12 69 
12 71 
12 72 
12 73 
12 74 
12 75 
12 79 
12 81 
12 82 
12 83 
12 86 
12 88 
12 89 
12 92 
12 93 
12 101 
12 102 
12 104 
12 105 
12 107 
12 108 
13 17 
13 20 
13 26 
13 27 
13 28 
13 32 
13 33 
13 35 
13 37 
13 39 
13 40 
13 43 
13 44 
13 49 
13 50 
13 52 
13 53 
13 54 
13 55 
13 57 
13 58 
13 60 
13 62 
13 63 
13 64 
13 65 
13 66 
13 67 
13 69 
13 71 
13 77 
13 78 
13 79 
13 81 
13 85 
13 86 
13 88 
13 91 
13 92 
13 95 
13 96 
13 97 
13 98 
13 99 
13 100 
13 101 
13 104 
13 107 
14 15 
14 16 
14 17 
14 19 
14 20 
14 22 
14 23 
14 24 
14 25 
14 26 
14 30 
14 31 
14 32 
14 35 
14 37 
14 39 
14 42 
14 43 
14 46 
14 47 
14 48 
14 49 
14 52 
14 57 
14 60 
14 62 
14 69 
14 71 
14 73 
14 74 
14 75 
14 76 
14 77 
14 81 
14 83 
14 84 
14 85 
14 88 
14 90 
14 91 
14 94 
14 95 
14 103 
14 104 
14 106 
14 107 
14 109 
15 19 
15 22 
15 28 
15 29 
15 30 
15 34 
15 35 
15 37 
15 39 
15 41 
15 42 
15 45 
15 46 
15 51 
15 52 
15 54 
15 55 
15 56 
15 57 
15 59 
15 60 
15 62 
15 64 
15 65 
15 66 
15 67 
15 68 
15 69 
15 71 
15 73 
15 79 
15 80 
15 81 
15 83 
15 87 
15 88 
15 90 
15 93 
15 94 
15 97 
15 98 
15 99 
15 100 
15 101 
15 102 
15 103 
15 106 
15 109 
16 17 
16 18 
16 19 
16 21 
16 22 
16 24 
16 25 
16 26 
16 27 
16 28 
16 32 
16 33 
16 34 
16 37 
16 39 
16 41 
16 44 
16 45 
16 48 
16 49 
16 50 
16 51 
16 54 
16 59 
16 62 
16 64 
16 71 
16 73 
16 75 
16 76 
16 77 
16 78 
16 79 
16 83 
16 85 
16 86 
16 87 
16 90 
16 92 
16 93 
16 96 
16 97 
16 105 
16 106 
16 108 
16 109 
17 21 
17 24 
17 30 
17 31 
17 32 
17 36 
17 37 
17 39 
17 41 
17 43 
17 44 
17 47 
17 48 
17 53 
17 54 
17 56 
17 57 
17 58 
17 59 
17 61 
17 62 
17 64 
17 66 
17 67 
17 68 
17 69 
17 70 
17 71 
17 73 
17 75 
17 81 
17 82 
17 83 
17 85 
17 89 
17 90 
17 92 
17 95 
17 96 
17 99 
17 100 
17 101 
17 102 
17 103 
17 104 
17 105 
17 108 
18 19 
18 20 
18 21 
18 23 
18 24 
18 26 
18 27 
18 28 
18 29 
18 30 
18 34 
18 35 
18 36 
18 39 
18 41 
18 43 
18 46 
18 47 
18 50 
18 51 
18 52 
18 53 
18 56 
18 61 
18 64 
18 66 
18 73 
18 75 
18 77 
18 78 
18 79 
18 80 
18 81 
18 85 
18 87 
18 88 
18 89 
18 92 
18 94 
18 95 
18 98 
18 99 
18 107 
18 108 
19 23 
19 26 
19 32 
19 33 
19 34 
19 38 
19 39 
19 41 
19 43 
19 45 
19 46 
19 49 
19 50 
19 55 
19 56 
19 58 
19 59 
19 60 
19 61 
19 63 
19 64 
19 66 
19 68 
19 69 
19 70 
19 71 
19 72 
19 73 
19 75 
19 77 
19 83 
19 84 
19 85 
19 87 
19 91 
19 92 
19 94 
19 97 
19 98 
19 101 
19 102 
19 103 
19 104 
19 105 
19 106 
19 107 
20 21 
20 22 
20 23 
20 25 
20 26 
20 28 
20 29 
20 30 
20 31 
20 32 
20 36 
20 37 
20 38 
20 41 
20 43 
20 45 
20 48 
20 49 
20 52 
20 53 
20 54 
20 55 
20 58 
20 63 
20 66 
20 68 
20 75 
20 77 
20 79 
20 80 
20 81 
20 82 
20 83 
20 87 
20 89 
20 90 
20 91 
20 94 
20 96 
20 97 
20 100 
20 101 
20 109 
21 25 
21 28 
21 34 
21 35 
21 36 
21 40 
21 41 
21 43 
21 45 
21 47 
21 48 
21 51 
21 52 
21 57 
21 58 
21 60 
21 61 
21 62 
21 63 
21 65 
21 66 
21 68 
21 70 
21 71 
21 72 
21 73 
21 74 
21 75 
21 77 
21 79 
21 85 
21 86 
21 87 
21 89 
21 93 
21 94 
21 96 
21 99 
21 100 
21 103 
21 104 
21 105 
21 106 
21 107 
21 108 
21 109 
22 23 
22 24 
22 25 
22 27 
22 28 
22 30 
22 31 
22 32 
22 33 
22 34 
22 38 
22 39 
22 40 
22 43 
22 45 
22 47 
22 50 
22 51 
22 54 
22 55 
22 56 
22 57 
22 60 
22 65 
22 68 
22 70 
22 77 
22 79 
22 81 
22 82 
22 83 
22 84 
22 85 
22 89 
22 91 
22 92 
22 93 
22 96 
22 98 
22 99 
22 102 
22 103 
23 27 
23 30 
23 36 
23 37 
23 38 
23 42 
23 43 
23 45 
23 47 
23 49 
23 50 
23 53 
23 54 
23 59 
23 60 
23 62 
23 63 
23 64 
23 65 
23 67 
23 68 
23 70 
23 72 
23 73 
23 74 
23 75 
23 76 
23 77 
23 79 
23 81 
23 87 
23 88 
23 89 
23 91 
23 95 
23 96 
23 98 
23 101 
23 102 
23 105 
23 106 
23 107 
23 108 
23 109 
24 25 
24 26 
24 27 
24 29 
24 30 
24 32 
24 33 
24 34 
24 35 
24 36 
24 40 
24 41 
24 42 
24 45 
24 47 
24 49 
24 52 
24 53 
24 56 
24 57 
24 58 
24 59 
24 62 
24 67 
24 70 
24 72 
24 79 
24 81 
24 83 
24 84 
24 85 
24 86 
24 87 
24 91 
24 93 
24 94 
24 95 
24 98 
24 100 
24 101 
24 104 
24 105 
25 29 
25 32 
25 38 
25 39 
25 40 
25 44 
25 45 
25 47 
25 49 
25 51 
25 52 
25 55 
25 56 
25 61 
25 62 
25 64 
25 65 
25 66 
25 67 
25 69 
25 70 
25 72 
25 74 
25 75 
25 76 
25 77 
25 78 
25 79 
25 81 
25 83 
25 89 
25 90 
25 91 
25 93 
25 97 
25 98 
25 100 
25 103 
25 104 
25 107 
25 108 
25 109 
26 27 
26 28 
26 29 
26 31 
26 32 
26 34 
26 35 
26 36 
26 37 
26 38 
26 42 
26 43 
26 44 
26 47 
26 49 
26 51 
26 54 
26 55 
26 58 
26 59 
26 60 
26 61 
26 64 
26 69 
26 72 
26 74 
26 81 
26 83 
26 85 
26 86 
26 87 
26 88 
26 89 
26 93 
26 95 
26 96 
26 97 
26 100 
26 102 
26 103 
26 106 
26 107 
27 31 
27 34 
27 40 
27 41 
27 42 
27 46 
27 47 
27 49 
27 51 
27 53 
27 54 
27 57 
27 58 
27 63 
27 64 
27 66 
27 67 
27 68 
27 69 
27 71 
27 72 
27 74 
27 76 
27 77 
27 78 
27 79 
27 80 
27 81 
27 83 
27 85 
27 91 
27 92 
27 93 
27 95 
27 99 
27 100 
27 102 
27 105 
27 106 
27 109 
28 29 
28 30 
28 31 
28 33 
28 34 
28 36 
28 37 
28 38 
28 39 
28 40 
28 44 
28 45 
28 46 
28 49 
28 51 
28 53 
28 56 
28 57 
28 60 
28 61 
28 62 
28 63 
28 66 
28 71 
28 74 
28 76 
28 83 
28 85 
28 87 
28 88 
28 89 
28 90 
28 91 
28 95 
28 97 
28 98 
28 99 
28 102 
28 104 
28 105 
28 108 
28 109 
29 33 
29 36 
29 42 
29 43 
29 44 
29 48 
29 49 
29 51 
29 53 
29 55 
29 56 
29 59 
29 60 
29 65 
29 66 
29 68 
29 69 
29 70 
29 71 
29 73 
29 74 
29 76 
29 78 
29 79 
29 80 
29 81 
29 82 
29 83 
29 85 
29 87 
29 93 
29 94 
29 95 
29 97 
29 101 
29 102 
29 104 
29 107 
29 108 
30 31 
30 32 
30 33 
30 35 
30 36 
30 38 
30 39 
30 40 
30 41 
30 42 
30 46 
30 47 
30 48 
30 51 
30 53 
30 55 
30 58 
30 59 
30 62 
30 63 
30 64 
30 65 
30 68 
30 73 
30 76 
30 78 
30 85 
30 87 
30 89 
30 90 
30 91 
30 92 
30 93 
30 97 
30 99 
30 100 
30 101 
30 104 
30 106 
30 107 
31 35 
31 38 
31 44 
31 45 
31 46 
31 50 
31 51 
31 53 
31 55 
31 57 
31 58 
31 61 
31 62 
31 67 
31 68 
31 70 
31 71 
31 72 
31 73 
31 75 
31 76 
31 78 
31 80 
31 81 
31 82 
31 83 
31 84 
31 85 
31 87 
31 89 
31 95 
31 96 
31 97 
31 99 
31 103 
31 104 
31 106 
31 109 
32 33 
32 34 
32 35 
32 37 
32 38 
32 40 
32 41 
32 42 
32 43 
32 44 
32 48 
32 49 
32 50 
32 53 
32 55 
32 57 
32 60 
32 61 
32 64 
32 65 
32 66 
32 67 
32 70 
32 75 
32 78 
32 80 
32 87 
32 89 
32 91 
32 92 
32 93 
32 94 
32 95 
32 99 
32 101 
32 102 
32 103 
32 106 
32 108 
32 109 
33 37 
33 40 
33 46 
33 47 
33 48 
33 52 
33 53 
33 55 
33 57 
33 59 
33 60 
33 63 
33 64 
33 69 
33 70 
33 72 
33 73 
33 74 
33 75 
33 77 
33 78 
33 80 
33 82 
33 83 
33 84 
33 85 
33 86 
33 87 
33 89 
33 91 
33 97 
33 98 
33 99 
33 101 
33 105 
33 106 
33 108 
34 35 
34 36 
34 37 
34 39 
34 40 
34 42 
34 43 
34 44 
34 45 
34 46 
34 50 
34 51 
34 52 
34 55 
34 57 
34 59 
34 62 
34 63 
34 66 
34 67 
34 68 
34 69 
34 72 
34 77 
34 80 
34 82 
34 89 
34 91 
34 93 
34 94 
34 95 
34 96 
34 97 
34 101 
34 103 
34 104 
34 105 
34 108 
35 39 
35 42 
35 48 
35 49 
35 50 
35 54 
35 55 
35 57 
35 59 
35 61 
35 62 
35 65 
35 66 
35 71 
35 72 
35 74 
35 75 
35 76 
35 77 
35 79 
35 80 
35 82 
35 84 
35 85 
35 86 
35 87 
35 88 
35 89 
35 91 
35 93 
35 99 
35 100 
35 101 
35 103 
35 107 
35 108 
36 37 
36 38 
36 39 
36 41 
36 42 
36 44 
36 45 
36 46 
36 47 
36 48 
36 52 
36 53 
36 54 
36 57 
36 59 
36 61 
36 64 
36 65 
36 68 
36 69 
36 70 
36 71 
36 74 
36 79 
36 82 
36 84 
36 91 
36 93 
36 95 
36 96 
36 97 
36 98 
36 99 
36 103 
36 105 
36 106 
36 107 
37 41 
37 44 
37 50 
37 51 
37 52 
37 56 
37 57 
37 59 
37 61 
37 63 
37 64 
37 67 
37 68 
37 73 
37 74 
37 76 
37 77 
37 78 
37 79 
37 81 
37 82 
37 84 
37 86 
37 87 
37 88 
37 89 
37 90 
37 91 
37 93 
37 95 
37 101 
37 102 
37 103 
37 105 
37 109 
38 39 
38 40 
38 41 
38 43 
38 44 
38 46 
38 47 
38 48 
38 49 
38 50 
38 54 
38 55 
38 56 
38 59 
38 61 
38 63 
38 66 
38 67 
38 70 
38 71 
38 72 
38 73 
38 76 
38 81 
38 84 
38 86 
38 93 
38 95 
38 97 
38 98 
38 99 
38 100 
38 101 
38 105 
38 107 
38 108 
38 109 
39 43 
39 46 
39 52 
39 53 
39 54 
39 58 
39 59 
39 61 
39 63 
39 65 
39 66 
39 69 
39 70 
39 75 
39 76 
39 78 
39 79 
39 80 
39 81 
39 83 
39 84 
39 86 
39 88 
39 89 
39 90 
39 91 
39 92 
39 93 
39 95 
39 97 
39 103 
39 104 
39 105 
39 107 
40 41 
40 42 
40 43 
40 45 
40 46 
40 48 
40 49 
40 50 
40 51 
40 52 
40 56 
40 57 
40 58 
40 61 
40 63 
40 65 
40 68 
40 69 
40 72 
40 73 
40 74 
40 75 
40 78 
40 83 
40 86 
40 88 
40 95 
40 97 
40 99 
40 100 
40 101 
40 102 
40 103 
40 107 
40 109 
41 45 
41 48 
41 54 
41 55 
41 56 
41 60 
41 61 
41 63 
41 65 
41 67 
41 68 
41 71 
41 72 
41 77 
41 78 
41 80 
41 81 
41 82 
41 83 
41 85 
41 86 
41 88 
41 90 
41 91 
41 92 
41 93 
41 94 
41 95 
41 97 
41 99 
41 105 
41 106 
41 107 
41 109 
42 43 
42 44 
42 45 
42 47 
42 48 
42 50 
42 51 
42 52 
42 53 
42 54 
42 58 
42 59 
42 60 
42 63 
42 65 
42 67 
42 70 
42 71 
42 74 
42 75 
42 76 
42 77 
42 80 
42 85 
42 88 
42 90 
42 97 
42 99 
42 101 
42 102 
42 103 
42 104 
42 105 
42 109 
43 47 
43 50 
43 56 
43 57 
43 58 
43 62 
43 63 
43 65 
43 67 
43 69 
43 70 
43 73 
43 74 
43 79 
43 80 
43 82 
43 83 
43 84 
43 85 
43 87 
43 88 
43 90 
43 92 
43 93 
43 94 
43 95 
43 96 
43 97 
43 99 
43 101 
43 107 
43 108 
43 109 
44 45 
44 46 
44 47 
44 49 
44 50 
44 52 
44 53 
44 54 
44 55 
44 56 
44 60 
44 61 
44 62 
44 65 
44 67 
44 69 
44 72 
44 73 
44 76 
44 77 
44 78 
44 79 
44 82 
44 87 
44 90 
44 92 
44 99 
44 101 
44 103 
44 104 
44 105 
44 106 
44 107 
45 49 
45 52 
45 58 
45 59 
45 60 
45 64 
45 65 
45 67 
45 69 
45 71 
45 72 
45 75 
45 76 
45 81 
45 82 
45 84 
45 85 
45 86 
45 87 
45 89 
45 90 
45 92 
45 94 
45 95 
45 96 
45 97 
45 98 
45 99 
45 101 
45 103 
45 109 
46 47 
46 48 
46 49 
46 51 
46 52 
46 54 
46 55 
46 56 
46 57 
46 58 
46 62 
46 63 
46 64 
46 67 
46 69 
46 71 
46 74 
46 75 
46 78 
46 79 
46 80 
46 81 
46 84 
46 89 
46 92 
46 94 
46 101 
46 103 
46 105 
46 106 
46 107 
46 108 
46 109 
47 51 
47 54 
47 60 
47 61 
47 62 
47 66 
47 67 
47 69 
47 71 
47 73 
47 74 
47 77 
47 78 
47 83 
47 84 
47 86 
47 87 
47 88 
47 89 
47 91 
47 92 
47 94 
47 96 
47 97 
47 98 
47 99 
47 100 
47 101 
47 103 
47 105 
48 49 
48 50 
48 51 
48 53 
48 54 
48 56 
48 57 
48 58 
48 59 
48 60 
48 64 
48 65 
48 66 
48 69 
48 71 
48 73 
48 76 
48 77 
48 80 
48 81 
48 82 
48 83 
48 86 
48 91 
48 94 
48 96 
48 103 
48 105 
48 107 
48 108 
48 109 
49 53 
49 56 
49 62 
49 63 
49 64 
49 68 
49 69 
49 71 
49 73 
49 75 
49 76 
49 79 
49 80 
49 85 
49 86 
49 88 
49 89 
49 90 
49 91 
49 93 
49 94 
49 96 
49 98 
49 99 
49 100 
49 101 
49 102 
49 103 
49 105 
49 107 
50 51 
50 52 
50 53 
50 55 
50 56 
50 58 
50 59 
50 60 
50 61 
50 62 
50 66 
50 67 
50 68 
50 71 
50 73 
50 75 
50 78 
50 79 
50 82 
50 83 
50 84 
50 85 
50 88 
50 93 
50 96 
50 98 
50 105 
50 107 
50 109 
51 55 
51 58 
51 64 
51 65 
51 66 
51 70 
51 71 
51 73 
51 75 
51 77 
51 78 
51 81 
51 82 
51 87 
51 88 
51 90 
51 91 
51 92 
51 93 
51 95 
51 96 
51 98 
51 100 
51 101 
51 102 
51 103 
51 104 
51 105 
51 107 
51 109 
52 53 
52 54 
52 55 
52 57 
52 58 
52 60 
52 61 
52 62 
52 63 
52 64 
52 68 
52 69 
52 70 
52 73 
52 75 
52 77 
52 80 
52 81 
52 84 
52 85 
52 86 
52 87 
52 90 
52 95 
52 98 
52 100 
52 107 
52 109 
53 57 
53 60 
53 66 
53 67 
53 68 
53 72 
53 73 
53 75 
53 77 
53 79 
53 80 
53 83 
53 84 
53 89 
53 90 
53 92 
53 93 
53 94 
53 95 
53 97 
53 98 
53 100 
53 102 
53 103 
53 104 
53 105 
53 106 
53 107 
53 109 
54 55 
54 56 
54 57 
54 59 
54 60 
54 62 
54 63 
54 64 
54 65 
54 66 
54 70 
54 71 
54 72 
54 75 
54 77 
54 79 
54 82 
54 83 
54 86 
54 87 
54 88 
54 89 
54 92 
54 97 
54 100 
54 102 
54 109 
55 59 
55 62 
55 68 
55 69 
55 70 
55 74 
55 75 
55 77 
55 79 
55 81 
55 82 
55 85 
55 86 
55 91 
55 92 
55 94 
55 95 
55 96 
55 97 
55 99 
55 100 
55 102 
55 104 
55 105 
55 106 
55 107 
55 108 
55 109 
56 57 
56 58 
56 59 
56 61 
56 62 
56 64 
56 65 
56 66 
56 67 
56 68 
56 72 
56 73 
56 74 
56 77 
56 79 
56 81 
56 84 
56 85 
56 88 
56 89 
56 90 
56 91 
56 94 
56 99 
56 102 
56 104 
57 61 
57 64 
57 70 
57 71 
57 72 
57 76 
57 77 
57 79 
57 81 
57 83 
57 84 
57 87 
57 88 
57 93 
57 94 
57 96 
57 97 
57 98 
57 99 
57 101 
57 102 
57 104 
57 106 
57 107 
57 108 
57 109 
58 59 
58 60 
58 61 
58 63 
58 64 
58 66 
58 67 
58 68 
58 69 
58 70 
58 74 
58 75 
58 76 
58 79 
58 81 
58 83 
58 86 
58 87 
58 90 
58 91 
58 92 
58 93 
58 96 
58 101 
58 104 
58 106 
59 63 
59 66 
59 72 
59 73 
59 74 
59 78 
59 79 
59 81 
59 83 
59 85 
59 86 
59 89 
59 90 
59 95 
59 96 
59 98 
59 99 
59 100 
59 101 
59 103 
59 104 
59 106 
59 108 
59 109 
60 61 
60 62 
60 63 
60 65 
60 66 
60 68 
60 69 
60 70 
60 71 
60 72 
60 76 
60 77 
60 78 
60 81 
60 83 
60 85 
60 88 
60 89 
60 92 
60 93 
60 94 
60 95 
60 98 
60 103 
60 106 
60 108 
61 65 
61 68 
61 74 
61 75 
61 76 
61 80 
61 81 
61 83 
61 85 
61 87 
61 88 
61 91 
61 92 
61 97 
61 98 
61 100 
61 101 
61 102 
61 103 
61 105 
61 106 
61 108 
62 63 
62 64 
62 65 
62 67 
62 68 
62 70 
62 71 
62 72 
62 73 
62 74 
62 78 
62 79 
62 80 
62 83 
62 85 
62 87 
62 90 
62 91 
62 94 
62 95 
62 96 
62 97 
62 100 
62 105 
62 108 
63 67 
63 70 
63 76 
63 77 
63 78 
63 82 
63 83 
63 85 
63 87 
63 89 
63 90 
63 93 
63 94 
63 99 
63 100 
63 102 
63 103 
63 104 
63 105 
63 107 
63 108 
64 65 
64 66 
64 67 
64 69 
64 70 
64 72 
64 73 
64 74 
64 75 
64 76 
64 80 
64 81 
64 82 
64 85 
64 87 
64 89 
64 92 
64 93 
64 96 
64 97 
64 98 
64 99 
64 102 
64 107 
65 69 
65 72 
65 78 
65 79 
65 80 
65 84 
65 85 
65 87 
65 89 
65 91 
65 92 
65 95 
65 96 
65 101 
65 102 
65 104 
65 105 
65 106 
65 107 
65 109 
66 67 
66 68 
66 69 
66 71 
66 72 
66 74 
66 75 
66 76 
66 77 
66 78 
66 82 
66 83 
66 84 
66 87 
66 89 
66 91 
66 94 
66 95 
66 98 
66 99 
66 100 
66 101 
66 104 
66 109 
67 71 
67 74 
67 80 
67 81 
67 82 
67 86 
67 87 
67 89 
67 91 
67 93 
67 94 
67 97 
67 98 
67 103 
67 104 
67 106 
67 107 
67 108 
67 109 
68 69 
68 70 
68 71 
68 73 
68 74 
68 76 
68 77 
68 78 
68 79 
68 80 
68 84 
68 85 
68 86 
68 89 
68 91 
68 93 
68 96 
68 97 
68 100 
68 101 
68 102 
68 103 
68 106 
69 73 
69 76 
69 82 
69 83 
69 84 
69 88 
69 89 
69 91 
69 93 
69 95 
69 96 
69 99 
69 100 
69 105 
69 106 
69 108 
69 109 
70 71 
70 72 
70 73 
70 75 
70 76 
70 78 
70 79 
70 80 
70 81 
70 82 
70 86 
70 87 
70 88 
70 91 
70 93 
70 95 
70 98 
70 99 
70 102 
70 103 
70 104 
70 105 
70 108 
71 75 
71 78 
71 84 
71 85 
71 86 
71 90 
71 91 
71 93 
71 95 
71 97 
71 98 
71 101 
71 102 
71 107 
71 108 
72 73 
72 74 
72 75 
72 77 
72 78 
72 80 
72 81 
72 82 
72 83 
72 84 
72 88 
72 89 
72 90 
72 93 
72 95 
72 97 
72 100 
72 101 
72 104 
72 105 
72 106 
72 107 
73 77 
73 80 
73 86 
73 87 
73 88 
73 92 
73 93 
73 95 
73 97 
73 99 
73 100 
73 103 
73 104 
73 109 
74 75 
74 76 
74 77 
74 79 
74 80 
74 82 
74 83 
74 84 
74 85 
74 86 
74 90 
74 91 
74 92 
74 95 
74 97 
74 99 
74 102 
74 103 
74 106 
74 107 
74 108 
74 109 
75 79 
75 82 
75 88 
75 89 
75 90 
75 94 
75 95 
75 97 
75 99 
75 101 
75 102 
75 105 
75 106 
76 77 
76 78 
76 79 
76 81 
76 82 
76 84 
76 85 
76 86 
76 87 
76 88 
76 92 
76 93 
76 94 
76 97 
76 99 
76 101 
76 104 
76 105 
76 108 
76 109 
77 81 
77 84 
77 90 
77 91 
77 92 
77 96 
77 97 
77 99 
77 101 
77 103 
77 104 
77 107 
77 108 
78 79 
78 80 
78 81 
78 83 
78 84 
78 86 
78 87 
78 88 
78 89 
78 90 
78 94 
78 95 
78 96 
78 99 
78 101 
78 103 
78 106 
78 107 
79 83 
79 86 
79 92 
79 93 
79 94 
79 98 
79 99 
79 101 
79 103 
79 105 
79 106 
79 109 
80 81 
80 82 
80 83 
80 85 
80 86 
80 88 
80 89 
80 90 
80 91 
80 92 
80 96 
80 97 
80 98 
80 101 
80 103 
80 105 
80 108 
80 109 
81 85 
81 88 
81 94 
81 95 
81 96 
81 100 
81 101 
81 103 
81 105 
81 107 
81 108 
82 83 
82 84 
82 85 
82 87 
82 88 
82 90 
82 91 
82 92 
82 93 
82 94 
82 98 
82 99 
82 100 
82 103 
82 105 
82 107 
83 87 
83 90 
83 96 
83 97 
83 98 
83 102 
83 103 
83 105 
83 107 
83 109 
84 85 
84 86 
84 87 
84 89 
84 90 
84 92 
84 93 
84 94 
84 95 
84 96 
84 100 
84 101 
84 102 
84 105 
84 107 
84 109 
85 89 
85 92 
85 98 
85 99 
85 100 
85 104 
85 105 
85 107 
85 109 
86 87 
86 88 
86 89 
86 91 
86 92 
86 94 
86 95 
86 96 
86 97 
86 98 
86 102 
86 103 
86 104 
86 107 
86 109 
87 91 
87 94 
87 100 
87 101 
87 102 
87 106 
87 107 
87 109 
88 89 
88 90 
88 91 
88 93 
88 94 
88 96 
88 97 
88 98 
88 99 
88 100 
88 104 
88 105 
88 106 
88 109 
89 93 
89 96 
89 102 
89 103 
89 104 
89 108 
89 109 
90 91 
90 92 
90 93 
90 95 
90 96 
90 98 
90 99 
90 100 
90 101 
90 102 
90 106 
90 107 
90 108 
91 95 
91 98 
91 104 
91 105 
91 106 
92 93 
92 94 
92 95 
92 97 
92 98 
92 100 
92 101 
92 102 
92 103 
92 104 
92 108 
92 109 
93 97 
93 100 
93 106 
93 107 
93 108 
94 95 
94 96 
94 97 
94 99 
94 100 
94 102 
94 103 
94 104 
94 105 
94 106 
95 99 
95 102 
95 108 
95 109 
96 97 
96 98 
96 99 
96 101 
96 102 
96 104 
96 105 
96 106 
96 107 
96 108 
97 101 
97 104 
98 99 
98 100 
98 101 
98 103 
98 104 
98 106 
98 107 
98 108 
98 109 
99 103 
99 106 
100 101 
100 102 
100 103 
100 105 
100 106 
100 108 
100 109 
101 105 
101 108 
102 103 
102 104 
102 105 
102 107 
102 108 
103 107 
104 105 
104 106 
104 107 
104 109 
105 109 
106 107 
106 108 
106 109 
108 109 
